0 3126 
1 3124 
2 3120 
3 3092 
4 3090 
5 3082 
6 3070 
7 3070 
8 3066 
9 3062 
10 3054 
11 2998 
12 2992 
13 2980 
14 2972 
15 2956 
16 2952 
17 2928 
18 2924 
19 2900 
20 2892 
21 2888 
22 2882 
23 2862 
24 2850 
25 2828 
26 2828 
27 2826 
28 2818 
29 2812 
30 2802 
31 2794 
32 2790 
33 2788 
34 2784 
35 2776 
36 2772 
37 2768 
38 2764 
39 2760 
40 2748 
41 2744 
42 2744 

